(set-logic ALL)
(declare-const url String)
(declare-const date String)
(assert (not (< (str.len url) 0)))
(assert (> (+ 0 (str.indexof url ":" 0)) 0))
(assert (not (< (+ 0 (str.indexof url ":" 0)) 0)))
(assert (not (= (str.substr url 0 (- (+ 0 (str.indexof url ":" 0)) 0)) "http")))
(assert (not (< (+ 0 (str.indexof url ":" 0)) 0)))
(assert (< 0 (str.len (str.substr url 0 (- (+ 0 (str.indexof url ":" 0)) 0)))))
(assert (< 1 (str.len (str.substr url 0 (- (+ 0 (str.indexof url ":" 0)) 0)))))
(assert (< 2 (str.len (str.substr url 0 (- (+ 0 (str.indexof url ":" 0)) 0)))))
(assert (not (< 3 (str.len (str.substr url 0 (- (+ 0 (str.indexof url ":" 0)) 0))))))
(assert (not (< (+ (+ 0 (str.indexof url ":" 0)) 1) 0)))
(assert (not (< (str.len url) 0)))
(assert (not (= (str.substr url (+ (+ 0 (str.indexof url ":" 0)) 1) (- (str.len url) (+ (+ 0 (str.indexof url ":" 0)) 1))) "")))
(assert (< 0 (str.len (str.substr url (+ (+ 0 (str.indexof url ":" 0)) 1) (- (str.len url) (+ (+ 0 (str.indexof url ":" 0)) 1))))))
(assert (not (< (+ 0 (str.indexof url ":" 0)) 0)))
(assert (not (= (str.substr url (+ (+ 0 (str.indexof url ":" 0)) 1) (- (str.len url) (+ (+ 0 (str.indexof url ":" 0)) 1))) "//")))
(assert (str.contains (str.substr url (+ (+ 0 (str.indexof url ":" 0)) 1) (- (str.len url) (+ (+ 0 (str.indexof url ":" 0)) 1))) "#"))
(assert (not (< (str.len (str.substr url (+ (+ 0 (str.indexof url ":" 0)) 1) (- (str.len url) (+ (+ 0 (str.indexof url ":" 0)) 1)))) 0)))
(assert (not (= (+ 0 (str.indexof (str.substr url (+ (+ 0 (str.indexof url ":" 0)) 1) (- (str.len url) (+ (+ 0 (str.indexof url ":" 0)) 1))) "#" 0)) (- 1))))
(assert (not (< (+ 0 (str.indexof (str.substr url (+ (+ 0 (str.indexof url ":" 0)) 1) (- (str.len url) (+ (+ 0 (str.indexof url ":" 0)) 1))) "#" 0)) 0)))
(assert (not (< (+ (+ 0 (str.indexof (str.substr url (+ (+ 0 (str.indexof url ":" 0)) 1) (- (str.len url) (+ (+ 0 (str.indexof url ":" 0)) 1))) "#" 0)) 1) 0)))
(assert (not (< (str.len (str.substr url (+ (+ 0 (str.indexof url ":" 0)) 1) (- (str.len url) (+ (+ 0 (str.indexof url ":" 0)) 1)))) 0)))
(assert (str.contains (str.substr (str.substr url (+ (+ 0 (str.indexof url ":" 0)) 1) (- (str.len url) (+ (+ 0 (str.indexof url ":" 0)) 1))) 0 (- (+ 0 (str.indexof (str.substr url (+ (+ 0 (str.indexof url ":" 0)) 1) (- (str.len url) (+ (+ 0 (str.indexof url ":" 0)) 1))) "#" 0)) 0)) "?"))
(assert (< (str.len (str.substr (str.substr url (+ (+ 0 (str.indexof url ":" 0)) 1) (- (str.len url) (+ (+ 0 (str.indexof url ":" 0)) 1))) 0 (- (+ 0 (str.indexof (str.substr url (+ (+ 0 (str.indexof url ":" 0)) 1) (- (str.len url) (+ (+ 0 (str.indexof url ":" 0)) 1))) "#" 0)) 0))) 0))
(check-sat)
(get-value (url))
(get-value (date))
